molecule {
He
}
energy('hf/cc-pvdz')
compare_values(-2.85518839, variable('current energy'), 5, 'SCF E')